Basis-Chain                   
  1.000000000000000
  15.000    0.000    0.000
  0.000    15.000    0.000
  0.000    0.000    15.000
   C1   C   H    N   
    2   2   3    1  
Cartesian
3.99737828396993     9.24261572192960    8.83161693055915
6.33579971065417     9.24261572192960    8.83161693055915
4.46227102946964    10.55614692721660    8.83161693055915
5.87090696515445    10.55614692721660    8.83161693055915
3.82414825648339    11.43972387571660    8.83161693055915
6.50902973814070    11.43972387571660    8.83161693055915
5.16658899731205     7.33085497094601    8.83161693055915
5.16658899731205     8.36085497094601    8.83161693055915
