EDSA                          
     1.000000000000000
    20.000000000000000     0.000000000000000     0.000000000000000
     0.000000000000000    20.000000000000000     0.000000000000000
     0.000000000000000     0.000000000000000    20.000000000000000
   C    H    O    S 
    2    4    6    2
Cartesian
     9.290139592300017     9.779765220929219    10.000000000000000
    10.711685673134767    10.272458231760087    10.000000000000000
     8.742161817423980    10.107050384638541    10.899016009195179
     8.742161817423980    10.107050384638541     9.100983990804817
    11.261659097376771     9.946672549165614     9.099396715440717
    11.261659097376771     9.946672549165614    10.900603284559281
     7.897450504944598     7.577053489666880    10.000000000000000
     9.983256046915304     7.584751469131921     8.807677160312776
     9.983256046915304     7.584751469131921    11.192322839687218
    12.099270544492134    12.481097765202945    10.000000000000000
    10.013959682960712    12.461542172530152    11.194922793222574
    10.013959682960712    12.461542172530152     8.805077206777423
     9.275475504677607     8.021385824383279    10.000000000000000
    10.723904891097330    12.030206317125096    10.000000000000000
