Basis-Chain                   
  1.000000000000000
  15.000    0.000    0.000
  0.000    15.000    0.000
  0.000    0.000    15.000
    C    H    N  
    4    3    1  
Cartesian
11.735381371783900	7.217897920781000	10.000000000000000
13.140162285591300	7.229422844340230	10.000000000000000
13.551249211185700	8.552643395651510	10.000000000000000
11.303115477748000	8.534915010267150	10.000000000000000
11.093992891018300	6.338338555787230	10.000000000000000
13.799139757769400	6.361486252433800	10.000000000000000
12.406143378755400	10.336711740944000	10.000000000000000
12.421261148059000	9.320609463189660	10.000000000000000
