Py-BPDSA_c01                  
     1.000000000000000
    15.102767394474   0.000000000000   0.000000000000
     0.000000000000  15.102767394474   0.000000000000
     0.000000000000   0.000000000000  15.102767394474
     C  C1   H    N    O    S 
    12   0   8    0    6    2
Cartesian
     9.999404466000952    18.229447244448917    10.000000000000000
    11.215724008861017    18.978264328904284    10.000000000000000
    11.214849550571662    20.358177133624281    10.000000000000000
     9.986884045737954    21.056210531299687    10.000000000000000
     8.771152413907798    20.350238364142765    10.000000000000000
     8.779869039918548    18.968476418293122    10.000000000000000
    10.013115954262048    13.943789468700327    10.000000000000000
    11.228847586092206    14.649761635857248    10.000000000000000
    11.220130960081455    16.031523581706868    10.000000000000000
    10.000595533999048    16.770552755551087    10.000000000000000
     8.784275991138982    16.021735671095726    10.000000000000000
     8.785150449428340    14.641822866375712    10.000000000000000
    12.174874674719385    18.464952503629434    10.000000000000000
    12.149782717199210    20.921434871917285    10.000000000000000
     7.840898763002852    20.920370665619345    10.000000000000000
     7.823859021958432    18.449395314340908    10.000000000000000
    12.159101236997145    14.079629334380652    10.000000000000000
    12.176140978041570    16.550604685659074    10.000000000000000
     7.825125325280622    16.535047496370570    10.000000000000000
     7.850217282800779    14.078565128082714    10.000000000000000
     8.583206536003756    23.255449566167126    10.000000000000000
    10.705124582940563    23.203526126240487    11.225176340929337
    10.705124582940563    23.203526126240487     8.774823659070655
    11.416793463996255    11.744551203463638    10.000000000000000
     9.294875417059433    11.796473873759526    11.225176340929337
     9.294875417059433    11.796473873759526     8.774823659070655
     9.982852555884904    22.839634619657804    10.000000000000000
    10.017147444115103    12.160365380342197    10.000000000000000
